max: 300f0102 + 300f0103 + 300f0104 - 10q01 - 20q02;
1y0102 + 1z0102 + 3y0103 + 3z0103 + 0y0104 + 0z0104 + 1y0203 + 1z0203 + 0y0205 + 0z0205 + 1y0306 + 1z0306 + 2y0405 + 2z0405 + 1y0406 + 1z0406 + 2y0507 + 2z0507 + 0y0607 + 0z0607 <= 4q1 + 5q2;
1y0102 + 1z0102 + 2y0103 + 2z0103 + 1y0104 + 1z0104 + 5y0203 + 5z0203 + 2y0205 + 2z0205 + 2y0306 + 2z0306 + 1y0405 + 1z0405 + 1y0406 + 1z0406 + 1y0507 + 1z0507 + 1y0607 + 1z0607 <= 2q1 + 2q2;
5y0102 + 5z0102 + 0y0103 + 0z0103 + 4y0104 + 4z0104 + 0y0203 + 0z0203 + 0y0205 + 0z0205 + 2y0306 + 2z0306 + 2y0405 + 2z0405 + 1y0406 + 1z0406 + 0y0507 + 0z0507 + 0y0607 + 0z0607 <= 0q1 + 1q2;

f0102 <= 3;
f0102 >= -3;
f0103 <= 1;
f0103 >= -1;
f0104 <= 1;
f0104 >= -1;
f0203 <= 1;
f0203 >= -1;
f0205 <= 1;
f0205 >= -1;
f0306 <= 3;
f0306 >= -3;
f0405 <= 4;
f0405 >= -4;
f0406 <= 4;
f0406 >= -4;
f0507 <= 4;
f0507 >= -4;
f0607 <= 1;
f0607 >= -1;

y0102 <= 3;
y0102 >= 0;
z0102 <= 3;
z0102 >= 0;

y0103 <= 1;
y0103 >= 0;
z0103 <= 1;
z0103 >= 0;

y0104 <= 1;
y0104 >= 0;
z0104 <= 1;
z0104 >= 0;

y0203 <= 1;
y0203 >= 0;
z0203 <= 1;
z0203 >= 0;

y0205 <= 1;
y0205 >= 0;
z0205 <= 1;
z0205 >= 0;

y0306 <= 3;
y0306 >= 0;
z0306 <= 3;
z0306 >= 0;

y0405 <= 4;
y0405 >= 0;
z0405 <= 4;
z0405 >= 0;

y0406 <= 4;
y0406 >= 0;
z0406 <= 4;
z0406 >= 0;

y0507 <= 4;
y0507 >= 0;
z0507 <= 4;
z0507 >= 0;

y0607 <= 1;
y0607 >= 0;
z0607 <= 1;
z0607 >= 0;

f0102 = f0203 + f0205;
f0103 + f0203 = f0306;
f0104 = f0405 + f0406;
f0205 + f0405 = f0507;
f0306 + f0406 = f0607;

f0102 = y0102 - z0102;
f0103 = y0103 - z0103;
f0104 = y0104 - z0104;
f0203 = y0203 - z0203;
f0205 = y0205 - z0205;
f0306 = y0306 - z0306;
f0405 = y0405 - z0405;
f0406 = y0406 - z0406;
f0507 = y0507 - z0507;
f0607 = y0607 - z0607;

q0 >= 0;
q1 >= 0;
